set Products := A B C D;
set Units := U1 U2 U3 U4;

param steps :=
A 3
B 4
C 3
D 3
;

param proctime :=
[A,*,*]:	U1	U2	U3	U4 :=
		1	15	.	20	13
		2	15	14	.	7
		3	10	.	9	1
[B,*,*]:	U1	U2	U3	U4 :=
		1	.	11	9	10
		2	18	20	.	19
		3	4	.	5	5
		4	12	15	.	13
[C,*,*]:	U1	U2	U3	U4 :=
		1	10	8	.	7
		2	.	7	8	.
		3	.	19	22	21
[D,*,*]:	U1	U2	U3	U4 :=
		1	6	5	7	.
		2	18	.	17	18
		3	8	7	6	. ;